2
4
40
1 1.3 1.55 1.75 2.1
38 17 26 12 25 35 32 9 7 13 19 23 13 26 18 24 34 19 13 46 45 13 26 15 44 35 19 8 38 49 7 38 25 5 17 38 21 22 24 27 24 8 47 36 46 20 24 45 10 21 33 15 20 36 25 45 19 34 25 11 5 17 8 36 27 6 5 39 15 37 25 27 27 8 43 45 10 41 47 41 27 45 49 8 17 42 42 17 33 14 41 12 26 9 16 49 18 12 37 20 14 27 18 38 47 6 25 33 45 14 36 23 31 37 36 33 37 42 23 12 10 29 13 15 39 19 28 26 30 9 47 22 6 43 19 11 15 47 49 43 49 30 8 48 21 26 41 32 29 24 49 17 17 5 48 13 15 12 23 17 